40 7 1
1 1 4 387
1 2 0 307 5 307
1 1 4 475
1 1 4 487
1 1 4 395
1 1 0 468
1 1 0 603
1 1 4 517
1 1 0 502
1 1 4 293
1 1 0 463
1 1 0 531
1 2 0 576 1 576
1 1 4 411
1 1 0 655
1 1 0 328
1 1 4 385
1 1 0 335
1 2 0 425 2 425
1 1 0 438
1 1 4 377
1 3 0 378 1 138 2 378
1 2 0 369 3 369
1 2 0 437 1 437
1 1 4 329
1 1 0 444
1 3 0 763 1 763 6 763
1 1 0 666
1 2 0 335 2 335
1 1 0 523
1 2 0 678 6 678
1 2 0 287 5 47
1 3 0 629 1 629 6 629
1 1 4 507
1 1 4 432
1 1 0 756
1 2 0 289 5 289
1 2 0 700 6 700
1 2 0 329 3 329
1 1 4 541
